(set-logic QF_NRA)
(set-info :source |Benchmarks generated from hycomp (https://es-static.fbk.eu/tools/hycomp/). BMC instances of non-linear hybrid automata taken from: Alessandro Cimatti, Sergio Mover, Stefano Tonetta, A quantifier-free SMT encoding of non-linear hybrid automata, FMCAD 2012 and Alessandro Cimatti, Sergio Mover, Stefano Tonetta, Quantier-free encoding of invariants for Hybrid Systems, Formal Methods in System Design. This instance solves a BMC problem of depth 1 and uses the quantifier free encoding with lemmas encoding. Contacts: Sergio Mover (mover@fbk.eu), Stefano Tonetta (tonettas@fbk.eu), Alessandro Cimatti (cimatti@fbk.eu).|)
(set-info :smt-lib-version 2.0)
(set-info :category "industrial")
(set-info :status unsat)
;; MathSAT API call trace
;; generated on Mon Mar 19 10:50:16 2012
(declare-fun b.delta__AT0 () Real)
(declare-fun b.EVENT.0__AT0 () Bool)
(declare-fun b.y__AT1 () Real)
(declare-fun b.counter.0__AT1 () Bool)
(declare-fun b.counter.1__AT1 () Bool)
(declare-fun b.counter.2__AT1 () Bool)
(declare-fun speed_loss__AT0 () Real)
(declare-fun b.counter.3__AT1 () Bool)
(declare-fun b.EVENT.0__AT1 () Bool)
(declare-fun b.EVENT.1__AT1 () Bool)
(declare-fun b.counter.3__AT0 () Bool)
(declare-fun b.x__AT0 () Real)
(declare-fun b.speed_y__AT0 () Real)
(declare-fun b.speed_x__AT0 () Real)
(declare-fun b.x__AT1 () Real)
(declare-fun b.EVENT.1__AT0 () Bool)
(declare-fun b.event_is_timed__AT1 () Bool)
(declare-fun b.time__AT0 () Real)
(declare-fun b.speed_x__AT1 () Real)
(declare-fun b.speed_y__AT1 () Real)
(declare-fun b.y__AT0 () Real)
(declare-fun b.counter.0__AT0 () Bool)
(declare-fun b.counter.1__AT0 () Bool)
(declare-fun g__AT0 () Real)
(declare-fun b.event_is_timed__AT0 () Bool)
(declare-fun b.counter.2__AT0 () Bool)
(declare-fun b.time__AT1 () Real)
(declare-fun b.delta__AT1 () Real)
(assert (let ((.def_72 (* (- 1.0) g__AT0)))
(let ((.def_73 (* (/ 1 2) .def_72)))
(let ((.def_80 (* 2.0 .def_73)))
(let ((.def_124 (* (- 1.0) .def_80)))
(let ((.def_352 (* .def_124 b.delta__AT1)))
(let ((.def_355 (<= .def_352 b.speed_y__AT1)))
(let ((.def_362 (not .def_355)))
(let ((.def_315 (<= 0.0 b.speed_y__AT1)))
(let ((.def_363 (or .def_315 .def_362)))
(let ((.def_353 (<= b.speed_y__AT1 .def_352)))
(let ((.def_329 (<= b.speed_y__AT1 0.0 )))
(let ((.def_330 (not .def_329)))
(let ((.def_361 (or .def_330 .def_353)))
(let ((.def_364 (and .def_361 .def_363)))
(let ((.def_115 (<= g__AT0 0.0 )))
(let ((.def_365 (or .def_115 .def_364)))
(let ((.def_357 (not .def_353)))
(let ((.def_358 (or .def_329 .def_357)))
(let ((.def_316 (not .def_315)))
(let ((.def_356 (or .def_316 .def_355)))
(let ((.def_359 (and .def_356 .def_358)))
(let ((.def_120 (<= 0.0 g__AT0)))
(let ((.def_360 (or .def_120 .def_359)))
(let ((.def_366 (and .def_360 .def_365)))
(let ((.def_354 (and .def_329 .def_353)))
(let ((.def_367 (and .def_354 .def_366)))
(let ((.def_311 (* .def_80 b.delta__AT1)))
(let ((.def_312 (+ b.speed_y__AT1 .def_311)))
(let ((.def_327 (<= .def_312 0.0 )))
(let ((.def_328 (not .def_327)))
(let ((.def_347 (or .def_328 .def_329)))
(let ((.def_313 (<= 0.0 .def_312)))
(let ((.def_346 (or .def_313 .def_316)))
(let ((.def_348 (and .def_346 .def_347)))
(let ((.def_349 (or .def_120 .def_348)))
(let ((.def_314 (not .def_313)))
(let ((.def_343 (or .def_314 .def_315)))
(let ((.def_342 (or .def_327 .def_330)))
(let ((.def_344 (and .def_342 .def_343)))
(let ((.def_345 (or .def_115 .def_344)))
(let ((.def_350 (and .def_345 .def_349)))
(let ((.def_341 (and .def_313 .def_315)))
(let ((.def_351 (and .def_341 .def_350)))
(let ((.def_368 (or .def_351 .def_367)))
(let ((.def_306 (* b.speed_y__AT1 b.delta__AT1)))
(let ((.def_304 (* b.delta__AT1 b.delta__AT1)))
(let ((.def_305 (* .def_73 .def_304)))
(let ((.def_307 (+ .def_305 .def_306)))
(let ((.def_308 (+ b.y__AT1 .def_307)))
(let ((.def_321 (<= .def_308 0.0 )))
(let ((.def_335 (not .def_321)))
(let ((.def_319 (<= b.y__AT1 0.0 )))
(let ((.def_336 (or .def_319 .def_335)))
(let ((.def_294 (<= 0.0 b.y__AT1)))
(let ((.def_333 (not .def_294)))
(let ((.def_309 (<= 0.0 .def_308)))
(let ((.def_334 (or .def_309 .def_333)))
(let ((.def_337 (and .def_334 .def_336)))
(let ((.def_331 (or .def_328 .def_330)))
(let ((.def_332 (not .def_331)))
(let ((.def_338 (or .def_332 .def_337)))
(let ((.def_323 (not .def_309)))
(let ((.def_324 (or .def_294 .def_323)))
(let ((.def_320 (not .def_319)))
(let ((.def_322 (or .def_320 .def_321)))
(let ((.def_325 (and .def_322 .def_324)))
(let ((.def_317 (or .def_314 .def_316)))
(let ((.def_318 (not .def_317)))
(let ((.def_326 (or .def_318 .def_325)))
(let ((.def_339 (and .def_326 .def_338)))
(let ((.def_310 (and .def_294 .def_309)))
(let ((.def_340 (and .def_310 .def_339)))
(let ((.def_369 (and .def_340 .def_368)))
(let ((.def_53 (<= g__AT0 10.0 )))
(let ((.def_52 (<= 8.0 g__AT0)))
(let ((.def_54 (and .def_52 .def_53)))
(let ((.def_370 (and .def_54 .def_369)))
(let ((.def_61 (<= speed_loss__AT0 (/ 1 2))))
(let ((.def_58 (<= (/ 1 10) speed_loss__AT0)))
(let ((.def_62 (and .def_58 .def_61)))
(let ((.def_371 (and .def_62 .def_370)))
(let ((.def_28 (not b.counter.0__AT0)))
(let ((.def_298 (or b.counter.1__AT0 .def_28)))
(let ((.def_31 (not b.counter.2__AT0)))
(let ((.def_299 (or .def_31 .def_298)))
(let ((.def_300 (or b.counter.3__AT0 .def_299)))
(let ((.def_63 (and .def_54 .def_62)))
(let ((.def_295 (and .def_63 .def_294)))
(let ((.def_291 (not b.EVENT.0__AT1)))
(let ((.def_289 (not b.EVENT.1__AT1)))
(let ((.def_292 (or .def_289 .def_291)))
(let ((.def_186 (not b.counter.1__AT1)))
(let ((.def_4 (not b.counter.0__AT1)))
(let ((.def_282 (or .def_4 .def_186)))
(let ((.def_286 (or b.counter.3__AT1 .def_282)))
(let ((.def_283 (or b.counter.2__AT1 .def_282)))
(let ((.def_8 (not b.counter.2__AT1)))
(let ((.def_281 (or .def_4 .def_8)))
(let ((.def_284 (and .def_281 .def_283)))
(let ((.def_203 (not b.counter.3__AT1)))
(let ((.def_285 (or .def_203 .def_284)))
(let ((.def_287 (and .def_285 .def_286)))
(let ((.def_293 (and .def_287 .def_292)))
(let ((.def_296 (and .def_293 .def_295)))
(let ((.def_276 (<= 0.0 b.delta__AT0)))
(let ((.def_47 (not b.EVENT.0__AT0)))
(let ((.def_45 (not b.EVENT.1__AT0)))
(let ((.def_175 (and .def_45 .def_47)))
(let ((.def_176 (not .def_175)))
(let ((.def_277 (or .def_176 .def_276)))
(let ((.def_278 (or b.EVENT.1__AT0 .def_277)))
(let ((.def_225 (= b.counter.0__AT1 b.counter.0__AT0)))
(let ((.def_223 (= b.counter.1__AT1 b.counter.1__AT0)))
(let ((.def_221 (= b.counter.2__AT1 b.counter.2__AT0)))
(let ((.def_220 (= b.counter.3__AT1 b.counter.3__AT0)))
(let ((.def_222 (and .def_220 .def_221)))
(let ((.def_224 (and .def_222 .def_223)))
(let ((.def_226 (and .def_224 .def_225)))
(let ((.def_273 (or .def_176 .def_226)))
(let ((.def_274 (or b.EVENT.1__AT0 .def_273)))
(let ((.def_233 (= b.x__AT1 b.x__AT0)))
(let ((.def_230 (= b.y__AT0 b.y__AT1)))
(let ((.def_267 (and .def_230 .def_233)))
(let ((.def_157 (= b.speed_x__AT0 b.speed_x__AT1)))
(let ((.def_268 (and .def_157 .def_267)))
(let ((.def_219 (= b.speed_y__AT0 b.speed_y__AT1)))
(let ((.def_269 (and .def_219 .def_268)))
(let ((.def_264 (= b.delta__AT0 0.0 )))
(let ((.def_265 (and .def_175 .def_264)))
(let ((.def_266 (not .def_265)))
(let ((.def_270 (or .def_266 .def_269)))
(let ((.def_271 (or b.EVENT.1__AT0 .def_270)))
(let ((.def_244 (= b.time__AT0 b.time__AT1)))
(let ((.def_256 (and .def_233 .def_244)))
(let ((.def_257 (and .def_230 .def_256)))
(let ((.def_258 (and .def_157 .def_257)))
(let ((.def_259 (and .def_219 .def_258)))
(let ((.def_260 (and .def_226 .def_259)))
(let ((.def_261 (or .def_45 .def_260)))
(let ((.def_247 (* (- 1.0) b.time__AT1)))
(let ((.def_250 (+ b.delta__AT0 .def_247)))
(let ((.def_251 (+ b.time__AT0 .def_250)))
(let ((.def_252 (= .def_251 0.0 )))
(let ((.def_253 (or .def_176 .def_252)))
(let ((.def_254 (or b.EVENT.1__AT0 .def_253)))
(let ((.def_245 (or .def_175 .def_244)))
(let ((.def_246 (or b.EVENT.1__AT0 .def_245)))
(let ((.def_255 (and .def_246 .def_254)))
(let ((.def_262 (and .def_255 .def_261)))
(let ((.def_240 (= .def_176 b.event_is_timed__AT1)))
(let ((.def_238 (= b.event_is_timed__AT0 .def_175)))
(let ((.def_241 (and .def_238 .def_240)))
(let ((.def_227 (and .def_219 .def_226)))
(let ((.def_178 (= b.y__AT0 0.0 )))
(let ((.def_85 (<= 0.0 b.speed_y__AT0)))
(let ((.def_86 (not .def_85)))
(let ((.def_179 (and .def_86 .def_178)))
(let ((.def_228 (or .def_179 .def_227)))
(let ((.def_195 (or .def_4 b.counter.0__AT0)))
(let ((.def_194 (or b.counter.0__AT1 .def_28)))
(let ((.def_196 (and .def_194 .def_195)))
(let ((.def_197 (and .def_186 .def_196)))
(let ((.def_198 (or b.counter.1__AT0 .def_197)))
(let ((.def_26 (not b.counter.1__AT0)))
(let ((.def_193 (or b.counter.1__AT1 .def_26)))
(let ((.def_199 (and .def_193 .def_198)))
(let ((.def_211 (and .def_8 .def_199)))
(let ((.def_212 (or b.counter.2__AT0 .def_211)))
(let ((.def_206 (and .def_28 .def_186)))
(let ((.def_207 (or b.counter.1__AT0 .def_206)))
(let ((.def_208 (and .def_193 .def_207)))
(let ((.def_209 (and b.counter.2__AT1 .def_208)))
(let ((.def_210 (or .def_31 .def_209)))
(let ((.def_213 (and .def_210 .def_212)))
(let ((.def_214 (and b.counter.3__AT1 .def_213)))
(let ((.def_215 (or b.counter.3__AT0 .def_214)))
(let ((.def_200 (and b.counter.2__AT1 .def_199)))
(let ((.def_201 (or b.counter.2__AT0 .def_200)))
(let ((.def_189 (or b.counter.1__AT1 b.counter.1__AT0)))
(let ((.def_187 (and b.counter.0__AT1 .def_186)))
(let ((.def_188 (or .def_26 .def_187)))
(let ((.def_190 (and .def_188 .def_189)))
(let ((.def_191 (and .def_8 .def_190)))
(let ((.def_192 (or .def_31 .def_191)))
(let ((.def_202 (and .def_192 .def_201)))
(let ((.def_204 (and .def_202 .def_203)))
(let ((.def_34 (not b.counter.3__AT0)))
(let ((.def_205 (or .def_34 .def_204)))
(let ((.def_216 (and .def_205 .def_215)))
(let ((.def_183 (* (- 1.0) b.speed_y__AT0)))
(let ((.def_181 (* (- 1.0) speed_loss__AT0)))
(let ((.def_182 (+ 1.0 .def_181)))
(let ((.def_184 (* .def_182 .def_183)))
(let ((.def_185 (= b.speed_y__AT1 .def_184)))
(let ((.def_217 (and .def_185 .def_216)))
(let ((.def_180 (not .def_179)))
(let ((.def_218 (or .def_180 .def_217)))
(let ((.def_229 (and .def_218 .def_228)))
(let ((.def_231 (and .def_229 .def_230)))
(let ((.def_232 (and .def_157 .def_231)))
(let ((.def_234 (and .def_232 .def_233)))
(let ((.def_235 (or .def_175 .def_234)))
(let ((.def_236 (or b.EVENT.1__AT0 .def_235)))
(let ((.def_167 (* (- 1.0) b.y__AT1)))
(let ((.def_75 (* b.speed_y__AT0 b.delta__AT0)))
(let ((.def_170 (+ .def_75 .def_167)))
(let ((.def_70 (* b.delta__AT0 b.delta__AT0)))
(let ((.def_74 (* .def_70 .def_73)))
(let ((.def_171 (+ .def_74 .def_170)))
(let ((.def_172 (+ b.y__AT0 .def_171)))
(let ((.def_173 (= .def_172 0.0 )))
(let ((.def_161 (* (- 1.0) b.speed_y__AT1)))
(let ((.def_159 (* b.delta__AT0 .def_72)))
(let ((.def_162 (+ .def_159 .def_161)))
(let ((.def_163 (+ b.speed_y__AT0 .def_162)))
(let ((.def_164 (= .def_163 0.0 )))
(let ((.def_149 (* (- 1.0) b.x__AT1)))
(let ((.def_153 (+ .def_149 b.x__AT0)))
(let ((.def_147 (* b.delta__AT0 b.speed_x__AT0)))
(let ((.def_154 (+ .def_147 .def_153)))
(let ((.def_155 (= .def_154 0.0 )))
(let ((.def_158 (and .def_155 .def_157)))
(let ((.def_165 (and .def_158 .def_164)))
(let ((.def_174 (and .def_165 .def_173)))
(let ((.def_177 (or .def_174 .def_176)))
(let ((.def_237 (and .def_177 .def_236)))
(let ((.def_242 (and .def_237 .def_241)))
(let ((.def_263 (and .def_242 .def_262)))
(let ((.def_272 (and .def_263 .def_271)))
(let ((.def_275 (and .def_272 .def_274)))
(let ((.def_279 (and .def_275 .def_278)))
(let ((.def_280 (and .def_45 .def_279)))
(let ((.def_297 (and .def_280 .def_296)))
(let ((.def_301 (and .def_297 .def_300)))
(let ((.def_125 (* b.delta__AT0 .def_124)))
(let ((.def_128 (<= .def_125 b.speed_y__AT0)))
(let ((.def_135 (not .def_128)))
(let ((.def_136 (or .def_85 .def_135)))
(let ((.def_126 (<= b.speed_y__AT0 .def_125)))
(let ((.def_99 (<= b.speed_y__AT0 0.0 )))
(let ((.def_100 (not .def_99)))
(let ((.def_134 (or .def_100 .def_126)))
(let ((.def_137 (and .def_134 .def_136)))
(let ((.def_138 (or .def_115 .def_137)))
(let ((.def_130 (not .def_126)))
(let ((.def_131 (or .def_99 .def_130)))
(let ((.def_129 (or .def_86 .def_128)))
(let ((.def_132 (and .def_129 .def_131)))
(let ((.def_133 (or .def_120 .def_132)))
(let ((.def_139 (and .def_133 .def_138)))
(let ((.def_127 (and .def_99 .def_126)))
(let ((.def_140 (and .def_127 .def_139)))
(let ((.def_81 (* b.delta__AT0 .def_80)))
(let ((.def_82 (+ b.speed_y__AT0 .def_81)))
(let ((.def_97 (<= .def_82 0.0 )))
(let ((.def_98 (not .def_97)))
(let ((.def_118 (or .def_98 .def_99)))
(let ((.def_83 (<= 0.0 .def_82)))
(let ((.def_117 (or .def_83 .def_86)))
(let ((.def_119 (and .def_117 .def_118)))
(let ((.def_121 (or .def_119 .def_120)))
(let ((.def_84 (not .def_83)))
(let ((.def_113 (or .def_84 .def_85)))
(let ((.def_112 (or .def_97 .def_100)))
(let ((.def_114 (and .def_112 .def_113)))
(let ((.def_116 (or .def_114 .def_115)))
(let ((.def_122 (and .def_116 .def_121)))
(let ((.def_111 (and .def_83 .def_85)))
(let ((.def_123 (and .def_111 .def_122)))
(let ((.def_141 (or .def_123 .def_140)))
(let ((.def_76 (+ .def_74 .def_75)))
(let ((.def_77 (+ b.y__AT0 .def_76)))
(let ((.def_91 (<= .def_77 0.0 )))
(let ((.def_105 (not .def_91)))
(let ((.def_89 (<= b.y__AT0 0.0 )))
(let ((.def_106 (or .def_89 .def_105)))
(let ((.def_64 (<= 0.0 b.y__AT0)))
(let ((.def_103 (not .def_64)))
(let ((.def_78 (<= 0.0 .def_77)))
(let ((.def_104 (or .def_78 .def_103)))
(let ((.def_107 (and .def_104 .def_106)))
(let ((.def_101 (or .def_98 .def_100)))
(let ((.def_102 (not .def_101)))
(let ((.def_108 (or .def_102 .def_107)))
(let ((.def_93 (not .def_78)))
(let ((.def_94 (or .def_64 .def_93)))
(let ((.def_90 (not .def_89)))
(let ((.def_92 (or .def_90 .def_91)))
(let ((.def_95 (and .def_92 .def_94)))
(let ((.def_87 (or .def_84 .def_86)))
(let ((.def_88 (not .def_87)))
(let ((.def_96 (or .def_88 .def_95)))
(let ((.def_109 (and .def_96 .def_108)))
(let ((.def_79 (and .def_64 .def_78)))
(let ((.def_110 (and .def_79 .def_109)))
(let ((.def_142 (and .def_110 .def_141)))
(let ((.def_143 (and .def_54 .def_142)))
(let ((.def_144 (and .def_62 .def_143)))
(let ((.def_65 (and .def_63 .def_64)))
(let ((.def_48 (or .def_45 .def_47)))
(let ((.def_38 (or .def_26 .def_28)))
(let ((.def_42 (or b.counter.3__AT0 .def_38)))
(let ((.def_39 (or b.counter.2__AT0 .def_38)))
(let ((.def_37 (or .def_28 .def_31)))
(let ((.def_40 (and .def_37 .def_39)))
(let ((.def_41 (or .def_34 .def_40)))
(let ((.def_43 (and .def_41 .def_42)))
(let ((.def_49 (and .def_43 .def_48)))
(let ((.def_66 (and .def_49 .def_65)))
(let ((.def_29 (and .def_26 .def_28)))
(let ((.def_32 (and .def_29 .def_31)))
(let ((.def_35 (and .def_32 .def_34)))
(let ((.def_23 (= b.speed_y__AT0 0.0 )))
(let ((.def_20 (= b.y__AT0 10.0 )))
(let ((.def_15 (= b.time__AT0 0.0 )))
(let ((.def_17 (and .def_15 b.event_is_timed__AT0)))
(let ((.def_21 (and .def_17 .def_20)))
(let ((.def_24 (and .def_21 .def_23)))
(let ((.def_36 (and .def_24 .def_35)))
(let ((.def_67 (and .def_36 .def_66)))
(let ((.def_6 (or .def_4 b.counter.1__AT1)))
(let ((.def_9 (or .def_6 .def_8)))
(let ((.def_11 (or .def_9 b.counter.3__AT1)))
(let ((.def_12 (not .def_11)))
(let ((.def_68 (and .def_12 .def_67)))
(let ((.def_145 (and .def_68 .def_144)))
(let ((.def_302 (and .def_145 .def_301)))
(let ((.def_372 (and .def_302 .def_371)))
.def_372)))))))))))))))))))))))))))))))))))))))))))))))))))))))))))))))))))))))))))))))))))))))))))))))))))))))))))))))))))))))))))))))))))))))))))))))))))))))))))))))))))))))))))))))))))))))))))))))))))))))))))))))))))))))))))))))))))))))))))))))))))))))))))))))))))))))))))))))))))))))))))))))))))))))))))))))))))))))))))))))))))))))))
(check-sat)
(exit)
